\ENCODING=ISO-8859-1
\Problem name: IloCplex

Minimize
 obj1: 27 x_2_1 + 26 x_3_1 + 26 x_4_1 + 11 x_5_1 + 27 x_1_2 + 26 x_3_2
       + 26 x_4_2 + 27 x_5_2 + 26 x_1_3 + 26 x_2_3 + 26 x_4_3 + 16 x_5_3
       + 26 x_1_4 + 26 x_2_4 + 26 x_3_4 + 23 x_5_4 + 11 x_1_5 + 27 x_2_5
       + 16 x_3_5 + 23 x_4_5
Subject To
 interestingness_epsilon: 4 s_0 + 9 s_1 + 6 s_2 + 5 s_3 + 2 s_4 >= 5
 time_epsilon:            15 s_0 + 49 s_1 + 3 s_2 + 14 s_3 + 58 s_4
                          - Rgtime_epsilon  = 0
 inbound_1:               - s_0 + x_0_1 + x_2_1 + x_3_1 + x_4_1 + x_5_1  = 0
 inbound_2:               - s_1 + x_0_2 + x_1_2 + x_3_2 + x_4_2 + x_5_2  = 0
 inbound_3:               - s_2 + x_0_3 + x_1_3 + x_2_3 + x_4_3 + x_5_3  = 0
 inbound_4:               - s_3 + x_0_4 + x_1_4 + x_2_4 + x_3_4 + x_5_4  = 0
 inbound_5:               - s_4 + x_0_5 + x_1_5 + x_2_5 + x_3_5 + x_4_5  = 0
 outbound_1:              - s_0 + x_1_2 + x_1_3 + x_1_4 + x_1_5 + x_1_6  = 0
 outbound_2:              - s_1 + x_2_1 + x_2_3 + x_2_4 + x_2_5 + x_2_6  = 0
 outbound_3:              - s_2 + x_3_1 + x_3_2 + x_3_4 + x_3_5 + x_3_6  = 0
 outbound_4:              - s_3 + x_4_1 + x_4_2 + x_4_3 + x_4_5 + x_4_6  = 0
 outbound_5:              - s_4 + x_5_1 + x_5_2 + x_5_3 + x_5_4 + x_5_6  = 0
 path_start:              x_0_1 + x_0_2 + x_0_3 + x_0_4 + x_0_5  = 1
 path_end:                x_1_6 + x_2_6 + x_3_6 + x_4_6 + x_5_6  = 1
 path_structure:          x_0_0 + x_1_0 + x_6_1 + x_2_0 + x_6_2 + x_3_0 + x_6_3
                          + x_4_0 + x_6_4 + x_5_0 + x_6_5 + 2 x_6_0 + x_6_6
                          + x_0_6  = 0
 mtz_1_1:                 - 4 x_1_1 >= -3
 mtz_1_2:                 - 4 x_1_2 - u_1 + u_2 >= -3
 mtz_1_3:                 - 4 x_1_3 - u_1 + u_3 >= -3
 mtz_1_4:                 - 4 x_1_4 - u_1 + u_4 >= -3
 mtz_1_5:                 - 4 x_1_5 - u_1 + u_5 >= -3
 mtz_2_1:                 - 4 x_2_1 + u_1 - u_2 >= -3
 mtz_2_2:                 - 4 x_2_2 >= -3
 mtz_2_3:                 - 4 x_2_3 - u_2 + u_3 >= -3
 mtz_2_4:                 - 4 x_2_4 - u_2 + u_4 >= -3
 mtz_2_5:                 - 4 x_2_5 - u_2 + u_5 >= -3
 mtz_3_1:                 - 4 x_3_1 + u_1 - u_3 >= -3
 mtz_3_2:                 - 4 x_3_2 + u_2 - u_3 >= -3
 mtz_3_3:                 - 4 x_3_3 >= -3
 mtz_3_4:                 - 4 x_3_4 - u_3 + u_4 >= -3
 mtz_3_5:                 - 4 x_3_5 - u_3 + u_5 >= -3
 mtz_4_1:                 - 4 x_4_1 + u_1 - u_4 >= -3
 mtz_4_2:                 - 4 x_4_2 + u_2 - u_4 >= -3
 mtz_4_3:                 - 4 x_4_3 + u_3 - u_4 >= -3
 mtz_4_4:                 - 4 x_4_4 >= -3
 mtz_4_5:                 - 4 x_4_5 - u_4 + u_5 >= -3
 mtz_5_1:                 - 4 x_5_1 + u_1 - u_5 >= -3
 mtz_5_2:                 - 4 x_5_2 + u_2 - u_5 >= -3
 mtz_5_3:                 - 4 x_5_3 + u_3 - u_5 >= -3
 mtz_5_4:                 - 4 x_5_4 + u_4 - u_5 >= -3
 mtz_5_5:                 - 4 x_5_5 >= -3
Bounds
 0 <= s_0 <= 1
 0 <= s_1 <= 1
 0 <= s_2 <= 1
 0 <= s_3 <= 1
 0 <= s_4 <= 1
 0 <= x_0_1 <= 1
 0 <= x_2_1 <= 1
 0 <= x_3_1 <= 1
 0 <= x_4_1 <= 1
 0 <= x_5_1 <= 1
 0 <= x_0_2 <= 1
 0 <= x_1_2 <= 1
 0 <= x_3_2 <= 1
 0 <= x_4_2 <= 1
 0 <= x_5_2 <= 1
 0 <= x_0_3 <= 1
 0 <= x_1_3 <= 1
 0 <= x_2_3 <= 1
 0 <= x_4_3 <= 1
 0 <= x_5_3 <= 1
 0 <= x_0_4 <= 1
 0 <= x_1_4 <= 1
 0 <= x_2_4 <= 1
 0 <= x_3_4 <= 1
 0 <= x_5_4 <= 1
 0 <= x_0_5 <= 1
 0 <= x_1_5 <= 1
 0 <= x_2_5 <= 1
 0 <= x_3_5 <= 1
 0 <= x_4_5 <= 1
 0 <= x_1_6 <= 1
 0 <= x_2_6 <= 1
 0 <= x_3_6 <= 1
 0 <= x_4_6 <= 1
 0 <= x_5_6 <= 1
      x_0_0 = 0
 0 <= x_1_0 <= 1
 0 <= x_6_1 <= 1
 0 <= x_2_0 <= 1
 0 <= x_6_2 <= 1
 0 <= x_3_0 <= 1
 0 <= x_6_3 <= 1
 0 <= x_4_0 <= 1
 0 <= x_6_4 <= 1
 0 <= x_5_0 <= 1
 0 <= x_6_5 <= 1
 0 <= x_6_0 <= 1
      x_6_6 = 0
 0 <= x_0_6 <= 1
      x_1_1 = 0
 2 <= u_1 <= 5
 2 <= u_2 <= 5
 2 <= u_3 <= 5
 2 <= u_4 <= 5
 2 <= u_5 <= 5
      x_2_2 = 0
      x_3_3 = 0
      x_4_4 = 0
      x_5_5 = 0
 0 <= Rgtime_epsilon <= 1000
Binaries
 s_0  s_1  s_2  s_3  s_4  x_0_1  x_2_1  x_3_1  x_4_1  x_5_1  x_0_2  x_1_2 
 x_3_2  x_4_2  x_5_2  x_0_3  x_1_3  x_2_3  x_4_3  x_5_3  x_0_4  x_1_4  x_2_4 
 x_3_4  x_5_4  x_0_5  x_1_5  x_2_5  x_3_5  x_4_5  x_1_6  x_2_6  x_3_6  x_4_6 
 x_5_6  x_1_0  x_6_1  x_2_0  x_6_2  x_3_0  x_6_3  x_4_0  x_6_4  x_5_0  x_6_5 
 x_6_0  x_0_6 
Generals
 x_0_0  x_6_6  x_1_1  u_1  u_2  u_3  u_4  u_5  x_2_2  x_3_3  x_4_4  x_5_5 
End
